Rodando pra 1h

Optimize a model with 250129 rows, 374360 columns and 13707969 nonzeros
Coefficient statistics:
  Matrix range    [1e+00, 1e+04]
  Objective range [2e-01, 2e-01]
  Bounds range    [1e+00, 1e+04]
  RHS range       [1e+00, 1e+04]
Presolve removed 2 rows and 2 columns (presolve time = 5s) ...
Presolve removed 3 rows and 3 columns (presolve time = 14s) ...
Presolve removed 6 rows and 6 columns (presolve time = 20s) ...
Presolve removed 6 rows and 6 columns (presolve time = 20s) ...
Presolve removed 6 rows and 6 columns (presolve time = 25s) ...
Presolve removed 6 rows and 6 columns (presolve time = 31s) ...
Presolve removed 6 rows and 6 columns (presolve time = 35s) ...
Presolve removed 6 rows and 6 columns (presolve time = 41s) ...
Presolve removed 6 rows and 6 columns (presolve time = 47s) ...
Presolve removed 6 rows and 6 columns (presolve time = 50s) ...
Presolve removed 6 rows and 6 columns (presolve time = 56s) ...
Presolve removed 6 rows and 6 columns (presolve time = 61s) ...
Presolve removed 6 rows and 6 columns (presolve time = 65s) ...
Presolve removed 6 rows and 6 columns (presolve time = 71s) ...
Presolve removed 6 rows and 6 columns (presolve time = 76s) ...
Presolve removed 6 rows and 6 columns (presolve time = 82s) ...
Presolve removed 6 rows and 6 columns (presolve time = 86s) ...
Presolve removed 6 rows and 6 columns (presolve time = 90s) ...
Presolve removed 6 rows and 6 columns (presolve time = 95s) ...
Presolve removed 6 rows and 6 columns (presolve time = 102s) ...
Presolve removed 6 rows and 6 columns (presolve time = 106s) ...
Presolve removed 6 rows and 6 columns (presolve time = 111s) ...
Presolve removed 6 rows and 6 columns (presolve time = 122s) ...
Presolve removed 6 rows and 6 columns (presolve time = 141s) ...
Presolve removed 6 rows and 6 columns
Presolve time: 140.90s
Presolved: 250123 rows, 374354 columns, 13707927 nonzeros
Variable types: 249500 continuous, 124854 integer (124850 binary)
Optimize a model with 250123 rows, 374354 columns and 13707927 nonzeros
Coefficient statistics:
  Matrix range    [1e+00, 1e+04]
  Objective range [2e-01, 2e-01]
  Bounds range    [1e+00, 1e+04]
  RHS range       [1e+00, 2e+04]
Presolve removed 0 rows and 0 columns (presolve time = 6s) ...
Presolve removed 0 rows and 0 columns (presolve time = 10s) ...
Presolved: 250123 rows, 374354 columns, 13707927 nonzeros


Root simplex log...

Iteration    Objective       Primal Inf.    Dual Inf.      Time
       0    0.0000000e+00   1.514975e+03   0.000000e+00    175s
    1090    0.0000000e+00   0.000000e+00   0.000000e+00    176s

Root relaxation: objective 0.000000e+00, 1090 iterations, 12.77 seconds

    Nodes    |    Current Node    |     Objective Bounds      |     Work
 Expl Unexpl |  Obj  Depth IntInf | Incumbent    BestBd   Gap | It/Node Time

     0     0    0.00000    0  525          -    0.00000      -     - 3654s

Explored 0 nodes (247438 simplex iterations) in 3654.99 seconds
Thread count was 1 (of 4 available processors)

Time limit reached
Best objective -, best bound 0.000000000000e+00, gap -
Tempo: 3594.81 segundos

Error code = 10004
Var::get
